DIR: 0.2620146314439963, EFF: 0.4392977276858791, INT: 0.010344181452095598, OBJ: 0.288343459418029
original problem has 812 variables (392 bin, 0 int, 0 impl, 420 cont) and 449 constraints
unknown variable <t_x400> in line 2 of solution file </mnt/lscratch/users/dferrario/Adaptive-Cutsel-MILP/TransformedSolutions/aflow30a__trans__seed__1.sol>
  (further unknown variables are ignored)
1/1 feasible solution given by solution candidate storage, new primal bound 1.158000e+03

presolving:
   (0.0s) running MILP presolver
   (0.0s) MILP presolver found nothing
   (0.2s) probing cycle finished: starting next cycle
presolving (1 rounds: 1 fast, 1 medium, 1 exhaustive):
 0 deleted vars, 0 deleted constraints, 0 added constraints, 0 tightened bounds, 0 added holes, 0 changed sides, 0 changed coefficients
 8730 implications, 29 cliques
presolved problem has 812 variables (392 bin, 0 int, 0 impl, 420 cont) and 449 constraints
    391 constraints of type <varbound>
     58 constraints of type <linear>
transformed objective value is always integral (scale: 1)
Presolving Time: 0.20
transformed 1/1 original solutions to the transformed problem space

 time | node  | left  |LP iter|LP it/n|mem/heur|mdpt |vars |cons |rows |cuts |sepa|confs|strbr|  dualbound   | primalbound  |  gap   | compl. 
  0.2s|     1 |     0 |   761 |     - |  8064k |   0 | 812 | 449 | 449 |   0 |  0 |   0 |   0 | 9.831674e+02 | 1.158000e+03 |  17.78%| unknown
Computing relative interior point (time limit: 1e+20, iter limit: 7610) ...
  0.6s|     1 |     0 |   839 |     - |    11M |   0 | 813 | 449 | 459 |  10 |  1 |   0 |   0 | 9.831674e+02 | 1.158000e+03 |  17.78%| unknown
  0.6s|     1 |     0 |   839 |     - |    11M |   0 | 813 | 449 | 459 |  10 |  1 |   0 |   0 | 1.002472e+03 | 1.158000e+03 |  15.51%| unknown
  1.2s|     1 |     0 |   935 |     - |    15M |   0 | 813 | 449 | 469 |  20 |  2 |   0 |   0 | 1.020328e+03 | 1.158000e+03 |  13.49%| unknown
  1.8s|     1 |     0 |  1009 |     - |    18M |   0 | 813 | 449 | 479 |  30 |  3 |   0 |   0 | 1.031994e+03 | 1.158000e+03 |  12.21%| unknown
  2.0s|     1 |     0 |  1103 |     - |    19M |   0 | 813 | 449 | 489 |  40 |  4 |   0 |   0 | 1.040442e+03 | 1.158000e+03 |  11.30%| unknown
  2.1s|     1 |     0 |  1196 |     - |    20M |   0 | 813 | 449 | 499 |  50 |  5 |   0 |   0 | 1.047535e+03 | 1.158000e+03 |  10.55%| unknown
  2.3s|     1 |     0 |  1344 |     - |    21M |   0 | 813 | 449 | 509 |  60 |  6 |   0 |   0 | 1.054245e+03 | 1.158000e+03 |   9.84%| unknown
  2.4s|     1 |     0 |  1384 |     - |    23M |   0 | 813 | 449 | 519 |  70 |  7 |   0 |   0 | 1.060815e+03 | 1.158000e+03 |   9.16%| unknown
  2.6s|     1 |     0 |  1468 |     - |    24M |   0 | 813 | 449 | 529 |  80 |  8 |   0 |   0 | 1.064223e+03 | 1.158000e+03 |   8.81%| unknown
  2.8s|     1 |     0 |  1542 |     - |    29M |   0 | 813 | 449 | 539 |  90 |  9 |   0 |   0 | 1.067485e+03 | 1.158000e+03 |   8.48%| unknown
  3.0s|     1 |     0 |  1620 |     - |    32M |   0 | 813 | 449 | 549 | 100 | 10 |   0 |   0 | 1.069132e+03 | 1.158000e+03 |   8.31%| unknown
  3.2s|     1 |     0 |  1697 |     - |    37M |   0 | 813 | 449 | 558 | 110 | 11 |   0 |   0 | 1.072580e+03 | 1.158000e+03 |   7.96%| unknown
  3.4s|     1 |     0 |  1776 |     - |    40M |   0 | 813 | 449 | 568 | 120 | 12 |   0 |   0 | 1.074688e+03 | 1.158000e+03 |   7.75%| unknown
  3.6s|     1 |     0 |  1844 |     - |    42M |   0 | 813 | 449 | 578 | 130 | 13 |   0 |   0 | 1.076292e+03 | 1.158000e+03 |   7.59%| unknown
 time | node  | left  |LP iter|LP it/n|mem/heur|mdpt |vars |cons |rows |cuts |sepa|confs|strbr|  dualbound   | primalbound  |  gap   | compl. 
  3.9s|     1 |     0 |  1939 |     - |    44M |   0 | 813 | 449 | 588 | 140 | 14 |   0 |   0 | 1.077803e+03 | 1.158000e+03 |   7.44%| unknown
  4.2s|     1 |     0 |  2044 |     - |    47M |   0 | 813 | 449 | 598 | 150 | 15 |   0 |   0 | 1.079778e+03 | 1.158000e+03 |   7.24%| unknown
  4.5s|     1 |     0 |  2193 |     - |    50M |   0 | 813 | 449 | 608 | 160 | 16 |   0 |   0 | 1.083531e+03 | 1.158000e+03 |   6.87%| unknown
  4.9s|     1 |     0 |  2306 |     - |    51M |   0 | 813 | 449 | 600 | 170 | 17 |   0 |   0 | 1.086110e+03 | 1.158000e+03 |   6.62%| unknown
  5.2s|     1 |     0 |  2407 |     - |    53M |   0 | 813 | 449 | 610 | 180 | 18 |   0 |   0 | 1.087169e+03 | 1.158000e+03 |   6.52%| unknown
  5.5s|     1 |     0 |  2473 |     - |    55M |   0 | 813 | 449 | 620 | 190 | 19 |   0 |   0 | 1.087415e+03 | 1.158000e+03 |   6.49%| unknown
  5.8s|     1 |     0 |  2578 |     - |    56M |   0 | 813 | 449 | 630 | 200 | 20 |   0 |   0 | 1.087938e+03 | 1.158000e+03 |   6.44%| unknown
  6.2s|     1 |     0 |  2690 |     - |    58M |   0 | 813 | 449 | 640 | 210 | 21 |   0 |   0 | 1.089147e+03 | 1.158000e+03 |   6.32%| unknown
  6.6s|     1 |     0 |  2820 |     - |    61M |   0 | 813 | 449 | 650 | 220 | 22 |   0 |   0 | 1.090353e+03 | 1.158000e+03 |   6.20%| unknown
  7.0s|     1 |     0 |  2944 |     - |    64M |   0 | 813 | 449 | 632 | 230 | 23 |   0 |   0 | 1.091070e+03 | 1.158000e+03 |   6.13%| unknown
  7.5s|     1 |     0 |  3070 |     - |    65M |   0 | 813 | 449 | 642 | 240 | 24 |   0 |   0 | 1.092614e+03 | 1.158000e+03 |   5.98%| unknown
  7.9s|     1 |     0 |  3143 |     - |    65M |   0 | 813 | 449 | 652 | 250 | 25 |   0 |   0 | 1.093256e+03 | 1.158000e+03 |   5.92%| unknown
  8.3s|     1 |     0 |  3250 |     - |    68M |   0 | 813 | 449 | 662 | 260 | 26 |   0 |   0 | 1.094280e+03 | 1.158000e+03 |   5.82%| unknown
  8.7s|     1 |     0 |  3296 |     - |    68M |   0 | 813 | 449 | 672 | 270 | 27 |   0 |   0 | 1.094449e+03 | 1.158000e+03 |   5.81%| unknown
  9.2s|     1 |     0 |  3416 |     - |    71M |   0 | 813 | 449 | 682 | 280 | 28 |   0 |   0 | 1.095829e+03 | 1.158000e+03 |   5.67%| unknown
 time | node  | left  |LP iter|LP it/n|mem/heur|mdpt |vars |cons |rows |cuts |sepa|confs|strbr|  dualbound   | primalbound  |  gap   | compl. 
  9.7s|     1 |     0 |  3583 |     - |    72M |   0 | 813 | 449 | 652 | 290 | 29 |   0 |   0 | 1.097394e+03 | 1.158000e+03 |   5.52%| unknown
 10.1s|     1 |     0 |  3601 |     - |    72M |   0 | 813 | 449 | 662 | 300 | 30 |   0 |   0 | 1.097494e+03 | 1.158000e+03 |   5.51%| unknown
 10.6s|     1 |     0 |  3759 |     - |    73M |   0 | 813 | 449 | 672 | 310 | 31 |   0 |   0 | 1.098184e+03 | 1.158000e+03 |   5.45%| unknown
 11.1s|     1 |     0 |  3832 |     - |    77M |   0 | 813 | 449 | 682 | 320 | 32 |   0 |   0 | 1.098689e+03 | 1.158000e+03 |   5.40%| unknown
 11.6s|     1 |     0 |  3896 |     - |    80M |   0 | 813 | 449 | 692 | 330 | 33 |   0 |   0 | 1.099093e+03 | 1.158000e+03 |   5.36%| unknown
 12.1s|     1 |     0 |  3954 |     - |    80M |   0 | 813 | 449 | 702 | 340 | 34 |   0 |   0 | 1.099320e+03 | 1.158000e+03 |   5.34%| unknown
 12.7s|     1 |     0 |  4034 |     - |    82M |   0 | 813 | 449 | 662 | 350 | 35 |   0 |   0 | 1.099687e+03 | 1.158000e+03 |   5.30%| unknown
 13.1s|     1 |     0 |  4110 |     - |    82M |   0 | 813 | 449 | 672 | 360 | 36 |   0 |   0 | 1.100085e+03 | 1.158000e+03 |   5.26%| unknown
 13.6s|     1 |     0 |  4196 |     - |    85M |   0 | 813 | 449 | 682 | 370 | 37 |   0 |   0 | 1.100567e+03 | 1.158000e+03 |   5.22%| unknown
 14.1s|     1 |     0 |  4295 |     - |    85M |   0 | 813 | 449 | 692 | 380 | 38 |   0 |   0 | 1.100799e+03 | 1.158000e+03 |   5.20%| unknown
 14.5s|     1 |     0 |  4360 |     - |    86M |   0 | 813 | 449 | 702 | 390 | 39 |   0 |   0 | 1.100993e+03 | 1.158000e+03 |   5.18%| unknown
 15.0s|     1 |     0 |  4486 |     - |    89M |   0 | 813 | 449 | 712 | 400 | 40 |   0 |   0 | 1.101369e+03 | 1.158000e+03 |   5.14%| unknown
 15.5s|     1 |     0 |  4611 |     - |    90M |   0 | 813 | 449 | 675 | 410 | 41 |   0 |   0 | 1.101632e+03 | 1.158000e+03 |   5.12%| unknown
 15.9s|     1 |     0 |  4678 |     - |    91M |   0 | 813 | 449 | 685 | 420 | 42 |   0 |   0 | 1.101732e+03 | 1.158000e+03 |   5.11%| unknown
 16.4s|     1 |     0 |  4827 |     - |    92M |   0 | 813 | 449 | 695 | 430 | 43 |   0 |   0 | 1.102263e+03 | 1.158000e+03 |   5.06%| unknown
 time | node  | left  |LP iter|LP it/n|mem/heur|mdpt |vars |cons |rows |cuts |sepa|confs|strbr|  dualbound   | primalbound  |  gap   | compl. 
 16.9s|     1 |     0 |  4905 |     - |    96M |   0 | 813 | 449 | 705 | 440 | 44 |   0 |   0 | 1.102356e+03 | 1.158000e+03 |   5.05%| unknown
 17.4s|     1 |     0 |  5018 |     - |    96M |   0 | 813 | 449 | 715 | 450 | 45 |   0 |   0 | 1.102575e+03 | 1.158000e+03 |   5.03%| unknown
 17.9s|     1 |     0 |  5149 |     - |    96M |   0 | 813 | 449 | 725 | 460 | 46 |   0 |   0 | 1.102899e+03 | 1.158000e+03 |   5.00%| unknown
 18.4s|     1 |     0 |  5261 |     - |    98M |   0 | 813 | 449 | 691 | 470 | 47 |   0 |   0 | 1.103032e+03 | 1.158000e+03 |   4.98%| unknown
 18.5s|     1 |     0 |  5382 |     - |   102M |   0 | 813 | 449 | 701 | 480 | 48 |   0 |   0 | 1.103273e+03 | 1.158000e+03 |   4.96%| unknown
 18.6s|     1 |     0 |  5492 |     - |   104M |   0 | 813 | 449 | 710 | 489 | 49 |   0 |   0 | 1.103489e+03 | 1.158000e+03 |   4.94%| unknown
 18.7s|     1 |     0 |  5593 |     - |   104M |   0 | 813 | 449 | 720 | 499 | 50 |   0 |   0 | 1.103702e+03 | 1.158000e+03 |   4.92%| unknown
 18.7s|     1 |     2 |  5593 |     - |   104M |   0 | 813 | 449 | 720 | 499 | 50 |   0 |   0 | 1.103702e+03 | 1.158000e+03 |   4.92%| unknown

SCIP Status        : solving was interrupted [node limit reached]
Solving Time (sec) : 18.74
Solving Nodes      : 1
Primal Bound       : +1.15800000000000e+03 (1 solutions)
Dual Bound         : +1.10370202063951e+03
Gap                : 4.92 %
